
        $ From http://www.csplib.org/Problems/prob009/data/helmut.pdf
        $ Problem number 178
        $ Sequence length : 25
        language ESSENCE' 1.0
        letting sizemaster be 551
        letting sizes be sequence(3,5,24,25,26,30,35,36,39,40,42,57,68,76,94,109,120,128,152,162,166,175,176,200,223)
        